p cnf 103 336
c t mc
3 1 0
3 2 0
-1 -2 -3 0
2 -4 -5 0
-2 4 -5 0
2 4 5 0
-2 -4 5 0
-6 -3 0
-6 5 0
3 -5 6 0
1 7 -8 0
-1 -7 -8 0
1 -7 8 0
-1 7 8 0
6 8 -9 0
-6 -8 -9 0
6 -8 9 0
-6 8 9 0
11 10 0
11 -10 0
13 -4 0
13 -12 0
4 12 -13 0
15 -13 0
15 -14 0
13 14 -15 0
16 15 0
16 14 0
-15 -14 -16 0
-17 7 0
-17 -10 0
-7 10 17 0
-18 -4 0
-18 -17 0
4 17 18 0
-16 18 -19 0
16 -18 -19 0
-16 -18 19 0
16 18 19 0
20 -4 0
20 -5 0
4 5 -20 0
-19 -20 -21 0
19 20 -21 0
-19 20 21 0
19 -20 21 0
-22 -11 0
-22 -21 0
11 21 22 0
24 23 0
24 4 0
-23 -4 -24 0
25 23 0
25 -10 0
-23 10 -25 0
-25 26 -27 0
25 -26 -27 0
-25 -26 27 0
25 26 27 0
28 1 0
28 -3 0
-1 3 -28 0
27 28 -29 0
-27 -28 -29 0
27 -28 29 0
-27 28 29 0
-30 24 0
-30 29 0
-24 -29 30 0
22 -30 -31 0
-22 30 -31 0
22 30 31 0
-22 -30 31 0
-32 -19 0
-32 -18 0
19 18 32 0
34 -33 0
34 2 0
33 -2 -34 0
-32 -34 -35 0
32 34 -35 0
-32 34 35 0
32 -34 35 0
36 -5 0
36 -14 0
5 14 -36 0
-36 -37 -38 0
36 37 -38 0
-36 37 38 0
36 -37 38 0
39 -38 0
39 10 0
38 -10 -39 0
41 7 0
41 -33 0
-7 33 -41 0
40 41 -42 0
-40 -41 -42 0
40 -41 42 0
-40 41 42 0
-39 42 -43 0
39 -42 -43 0
-39 -42 43 0
39 42 43 0
-45 33 0
-45 -44 0
-33 44 45 0
-46 43 0
-46 -45 0
-43 45 46 0
-47 -35 0
-47 -46 0
35 46 47 0
48 -26 0
48 -23 0
26 23 -48 0
-49 47 0
-49 48 0
-47 -48 49 0
-50 31 0
-50 49 0
-31 -49 50 0
52 51 0
52 -17 0
-51 17 -52 0
-53 -52 0
-53 -41 0
52 41 53 0
-54 50 0
-54 -53 0
-50 53 54 0
-55 -9 0
-55 -54 0
9 54 55 0
57 -12 0
57 56 0
12 -56 -57 0
58 57 0
58 -13 0
-57 13 -58 0
26 -57 -59 0
-26 57 -59 0
26 57 59 0
-26 -57 59 0
60 -58 0
60 59 0
58 -59 -60 0
-62 10 -63 0
62 -10 -63 0
-62 -10 63 0
62 10 63 0
-61 63 -64 0
61 -63 -64 0
-61 -63 64 0
61 63 64 0
-44 65 -66 0
44 -65 -66 0
-44 -65 66 0
44 65 66 0
-63 -66 -67 0
63 66 -67 0
-63 66 67 0
63 -66 67 0
-64 -67 -68 0
64 67 -68 0
-64 67 68 0
64 -67 68 0
69 -16 0
69 -36 0
16 36 -69 0
-52 -70 -71 0
52 70 -71 0
-52 70 71 0
52 -70 71 0
-72 -69 0
-72 -71 0
69 71 72 0
-13 -37 -73 0
13 37 -73 0
-13 37 73 0
13 -37 73 0
-20 -73 -74 0
20 73 -74 0
-20 73 74 0
20 -73 74 0
72 74 -75 0
-72 -74 -75 0
72 -74 75 0
-72 74 75 0
-33 4 -76 0
33 -4 -76 0
-33 -4 76 0
33 4 76 0
41 -51 -77 0
-41 51 -77 0
41 51 77 0
-41 -51 77 0
76 77 -78 0
-76 -77 -78 0
76 -77 78 0
-76 77 78 0
33 19 -79 0
-33 -19 -79 0
33 -19 79 0
-33 19 79 0
80 -78 0
80 -79 0
78 79 -80 0
81 75 0
81 80 0
-75 -80 -81 0
-82 68 0
-82 -81 0
-68 81 82 0
-83 -60 0
-83 82 0
60 -82 83 0
-84 -38 0
-84 13 0
38 -13 84 0
-15 -66 -85 0
15 66 -85 0
-15 66 85 0
15 -66 85 0
73 -85 -86 0
-73 85 -86 0
73 85 86 0
-73 -85 86 0
84 86 -87 0
-84 -86 -87 0
84 -86 87 0
-84 86 87 0
88 -7 0
88 -14 0
7 14 -88 0
-89 -26 0
-89 44 0
26 -44 89 0
-90 -88 0
-90 89 0
88 -89 90 0
44 91 -92 0
-44 -91 -92 0
44 -91 92 0
-44 91 92 0
-93 -90 0
-93 -92 0
90 92 93 0
94 62 0
94 20 0
-62 -20 -94 0
95 94 0
95 56 0
-94 -56 -95 0
96 93 0
96 -95 0
-93 95 -96 0
97 -87 0
97 96 0
87 -96 -97 0
-98 -94 0
-98 -13 0
94 13 98 0
99 37 0
99 -25 0
-37 25 -99 0
98 99 -100 0
-98 -99 -100 0
98 -99 100 0
-98 99 100 0
101 97 0
101 100 0
-97 -100 -101 0
102 -83 0
102 101 0
83 -101 -102 0
-103 -55 0
-103 102 0
55 -102 103 0
-78 81 74 67 -25 -45 10 -36 -5 0
-84 -50 96 24 35 0
-66 -10 43 69 67 39 0
20 -58 -45 50 -43 -97 102 0
84 38 -44 -40 -53 -43 0
12 54 -29 89 0
96 -99 -6 15 -10 0
-67 10 -11 0
-63 88 -25 -102 47 -19 101 -29 0
-58 -83 -56 55 -65 -28 0
-70 -100 33 0
-59 -25 8 -66 88 -97 -94 -92 0
-8 83 41 61 -43 0
-72 34 -42 77 49 -63 74 -53 0
-29 -16 -13 0
28 -43 -19 -76 -96 -30 -8 0
1 20 -58 -21 0
89 71 -31 3 21 -5 0
32 -24 -35 90 0
7 -99 -29 -53 -101 -30 82 0
-95 -59 63 69 -10 75 -64 0
80 -69 50 97 -40 -4 73 -54 -86 -38 0
-22 85 58 -93 -78 72 -23 -39 0
-46 -78 -56 30 42 0
82 44 45 13 -23 0
72 93 27 77 44 25 -96 0
-55 9 58 38 -59 84 -83 81 -47 0
-31 38 24 -1 94 100 -57 -60 0
-94 -4 103 -71 -22 -29 -5 -65 0
-92 -80 -49 -68 -96 27 -95 0
7 -15 -103 12 -92 0
14 41 13 -63 31 -70 -44 81 -20 0
-72 11 103 -50 -56 0
-88 30 -79 37 80 23 57 -9 0
16 4 56 -37 0
-99 -60 80 0
75 -74 96 14 0
98 34 94 0
-46 -24 -12 8 88 0
-66 -43 -32 101 -82 75 -97 34 0
19 22 14 -57 51 -3 91 -55 94 0
60 6 -92 26 -70 -46 -102 -59 -80 0
10 92 83 89 0
-1 -30 -4 -63 10 -46 39 92 -82 98 0
80 75 -15 -98 16 -103 -29 25 100 -41 0
-85 -75 -44 90 68 -62 -4 42 16 -72 0
102 -70 10 -43 48 0
-69 84 -32 -55 -80 -43 33 87 26 0
-79 96 34 15 84 -97 101 62 -8 -92 0
-14 29 -92 -34 -12 48 39 -69 -9 0
-31 -74 97 58 -22 -96 67 6 101 0
-27 -52 20 -22 -45 -77 -35 0
86 1 -50 -75 -2 -61 0
-94 -8 -6 46 95 63 -88 -79 0
-45 -33 87 76 81 0
21 -52 -73 29 -7 72 0
103 0
